NAME          DCAP_2_4_3_500_SS317
ROWS
 N  OBJ
 L  CON1
 L  CON2
 L  CON3
 L  CON4
 L  CON5
 L  CON6
 L  CON7
 L  CON8
 L  CON9
 L  CON10
 L  CON11
 L  CON12
 E  CON13
 E  CON14
 E  CON15
 E  CON16
 E  CON17
 E  CON18
 E  CON19
 E  CON20
 E  CON21
 E  CON22
 E  CON23
 E  CON24
COLUMNS
    x[1,1]    OBJ       6.180167      CON1      1.000000    
    x[1,1]    CON7      -1.000000     CON8      -1.000000   
    x[1,1]    CON9      -1.000000   
    x[1,2]    OBJ       6.563535      CON2      1.000000    
    x[1,2]    CON8      -1.000000     CON9      -1.000000   
    x[1,3]    OBJ       7.443064      CON3      1.000000    
    x[1,3]    CON9      -1.000000   
    x[2,1]    OBJ       6.732585      CON4      1.000000    
    x[2,1]    CON10     -1.000000     CON11     -1.000000   
    x[2,1]    CON12     -1.000000   
    x[2,2]    OBJ       5.039546      CON5      1.000000    
    x[2,2]    CON11     -1.000000     CON12     -1.000000   
    x[2,3]    OBJ       6.054841      CON6      1.000000    
    x[2,3]    CON12     -1.000000   
    MARKER    'MARKER'                'INTORG'
    u[1,1]    OBJ       48.076654     CON1      -1.000000   
    u[1,2]    OBJ       20.066487     CON2      -1.000000   
    u[1,3]    OBJ       32.230043     CON3      -1.000000   
    u[2,1]    OBJ       49.996186     CON4      -1.000000   
    u[2,2]    OBJ       49.466655     CON5      -1.000000   
    u[2,3]    OBJ       27.484319     CON6      -1.000000   
    y[1,1,1]  OBJ       5.489768      CON7      1.016288    
    y[1,1,1]  CON13     1.000000    
    y[1,1,2]  OBJ       5.127898      CON8      1.218664    
    y[1,1,2]  CON14     1.000000    
    y[1,1,3]  OBJ       8.588095      CON9      0.835073    
    y[1,1,3]  CON15     1.000000    
    y[1,2,1]  OBJ       5.283889      CON7      1.453942    
    y[1,2,1]  CON16     1.000000    
    y[1,2,2]  OBJ       5.778300      CON8      1.254597    
    y[1,2,2]  CON17     1.000000    
    y[1,2,3]  OBJ       9.205242      CON9      0.951742    
    y[1,2,3]  CON18     1.000000    
    y[1,3,1]  OBJ       6.200900      CON7      1.067053    
    y[1,3,1]  CON19     1.000000    
    y[1,3,2]  OBJ       5.728958      CON8      0.960548    
    y[1,3,2]  CON20     1.000000    
    y[1,3,3]  OBJ       7.612452      CON9      0.640649    
    y[1,3,3]  CON21     1.000000    
    y[1,4,1]  OBJ       7.578630      CON7      0.579137    
    y[1,4,1]  CON22     1.000000    
    y[1,4,2]  OBJ       9.778576      CON8      0.599330    
    y[1,4,2]  CON23     1.000000    
    y[1,4,3]  OBJ       9.982454      CON9      0.738457    
    y[1,4,3]  CON24     1.000000    
    y[2,1,1]  OBJ       9.704989      CON10     1.016288    
    y[2,1,1]  CON13     1.000000    
    y[2,1,2]  OBJ       9.362059      CON11     1.218664    
    y[2,1,2]  CON14     1.000000    
    y[2,1,3]  OBJ       5.640654      CON12     0.835073    
    y[2,1,3]  CON15     1.000000    
    y[2,2,1]  OBJ       7.279954      CON10     1.453942    
    y[2,2,1]  CON16     1.000000    
    y[2,2,2]  OBJ       6.599399      CON11     1.254597    
    y[2,2,2]  CON17     1.000000    
    y[2,2,3]  OBJ       6.292839      CON12     0.951742    
    y[2,2,3]  CON18     1.000000    
    y[2,3,1]  OBJ       9.237150      CON10     1.067053    
    y[2,3,1]  CON19     1.000000    
    y[2,3,2]  OBJ       7.164918      CON11     0.960548    
    y[2,3,2]  CON20     1.000000    
    y[2,3,3]  OBJ       8.818972      CON12     0.640649    
    y[2,3,3]  CON21     1.000000    
    y[2,4,1]  OBJ       7.889989      CON10     0.579137    
    y[2,4,1]  CON22     1.000000    
    y[2,4,2]  OBJ       7.683677      CON11     0.599330    
    y[2,4,2]  CON23     1.000000    
    y[2,4,3]  OBJ       5.810059      CON12     0.738457    
    y[2,4,3]  CON24     1.000000    
    z[1,1]    OBJ       888.250053    CON13     1.000000    
    z[1,2]    OBJ       669.968815    CON14     1.000000    
    z[1,3]    OBJ       858.631306    CON15     1.000000    
    z[2,1]    OBJ       554.623523    CON16     1.000000    
    z[2,2]    OBJ       799.327847    CON17     1.000000    
    z[2,3]    OBJ       502.218337    CON18     1.000000    
    z[3,1]    OBJ       598.719619    CON19     1.000000    
    z[3,2]    OBJ       855.068268    CON20     1.000000    
    z[3,3]    OBJ       528.464103    CON21     1.000000    
    z[4,1]    OBJ       794.022762    CON22     1.000000    
    z[4,2]    OBJ       726.723240    CON23     1.000000    
    z[4,3]    OBJ       565.183960    CON24     1.000000    
    MARKER    'MARKER'                 'INTEND'
RHS
    RHS       CON1      -0.000000     CON2      -0.000000   
    RHS       CON3      -0.000000     CON4      -0.000000   
    RHS       CON5      -0.000000     CON6      -0.000000   
    RHS       CON7      -0.000000     CON8      -0.000000   
    RHS       CON9      -0.000000     CON10     -0.000000   
    RHS       CON11     -0.000000     CON12     -0.000000   
    RHS       CON13     1.000000      CON14     1.000000    
    RHS       CON15     1.000000      CON16     1.000000    
    RHS       CON17     1.000000      CON18     1.000000    
    RHS       CON19     1.000000      CON20     1.000000    
    RHS       CON21     1.000000      CON22     1.000000    
    RHS       CON23     1.000000      CON24     1.000000    
BOUNDS
 BV BOUND     u[1,1]  
 BV BOUND     u[1,2]  
 BV BOUND     u[1,3]  
 BV BOUND     u[2,1]  
 BV BOUND     u[2,2]  
 BV BOUND     u[2,3]  
 BV BOUND     y[1,1,1]
 BV BOUND     y[1,1,2]
 BV BOUND     y[1,1,3]
 BV BOUND     y[1,2,1]
 BV BOUND     y[1,2,2]
 BV BOUND     y[1,2,3]
 BV BOUND     y[1,3,1]
 BV BOUND     y[1,3,2]
 BV BOUND     y[1,3,3]
 BV BOUND     y[1,4,1]
 BV BOUND     y[1,4,2]
 BV BOUND     y[1,4,3]
 BV BOUND     y[2,1,1]
 BV BOUND     y[2,1,2]
 BV BOUND     y[2,1,3]
 BV BOUND     y[2,2,1]
 BV BOUND     y[2,2,2]
 BV BOUND     y[2,2,3]
 BV BOUND     y[2,3,1]
 BV BOUND     y[2,3,2]
 BV BOUND     y[2,3,3]
 BV BOUND     y[2,4,1]
 BV BOUND     y[2,4,2]
 BV BOUND     y[2,4,3]
 BV BOUND     z[1,1]  
 BV BOUND     z[1,2]  
 BV BOUND     z[1,3]  
 BV BOUND     z[2,1]  
 BV BOUND     z[2,2]  
 BV BOUND     z[2,3]  
 BV BOUND     z[3,1]  
 BV BOUND     z[3,2]  
 BV BOUND     z[3,3]  
 BV BOUND     z[4,1]  
 BV BOUND     z[4,2]  
 BV BOUND     z[4,3]  
ENDATA
